c FILE /home/rafael/Documents/HappySet/MIHS/inputs/happygen/output/graph_scale_free_k10_p0.5_v100_20241127_083919.txt
c SOURCE This is a scale-free graph formed for the happy graph colouring problem.
c DESCRIPTION It was generated using the problem generator of Rhyd Lewis
c
c GRAPH STATS
c Seed                             = 1511711857
c Number of Nodes                  = 100
c Number of colours k              = 10
c Number of pre-assignments        = 50
c Number of links per new node     = 5
c Density                          = 0.0979798
c 
c The degrees of nodes 1 to 100, respectively, are as follows 
c [36, 34, 30, 28, 28, 27, 26, 24, 21, 18, 18, 17, 17, 15, 15, 15, 14, 14, 13, 13, 12, 12, 11, 11, 11, 11, 
c  10, 10, 10, 10, 10, 10, 10, 9, 8, 8, 8, 8, 8, 8, 8, 8, 8, 7, 7, 7, 7, 7, 7, 7, 7, 
c  7, 7, 6, 6, 6, 6, 6, 6, 6, 6, 6, 6, 6, 6, 6, 6, 6, 6, 6, 6, 6, 6, 6, 6, 6, 
c  5, 5, 5, 5, 5, 5, 5, 5, 5, 5, 5, 5, 5, 5, 5, 5, 5, 5, 5, 5, 5, 5, 5, 5] 
c  
p edge 100 485 10
e 1 2
e 1 3
e 1 4
e 1 5
e 1 6
e 1 7
e 1 8
e 1 9
e 1 11
e 1 12
e 1 14
e 1 16
e 1 17
e 1 19
e 1 20
e 1 22
e 1 27
e 1 28
e 1 32
e 1 34
e 1 35
e 1 38
e 1 45
e 1 56
e 1 58
e 1 64
e 1 69
e 1 71
e 1 74
e 1 77
e 1 78
e 1 84
e 1 94
e 1 95
e 1 96
e 1 100
e 2 3
e 2 4
e 2 5
e 2 6
e 2 7
e 2 8
e 2 9
e 2 11
e 2 13
e 2 18
e 2 19
e 2 21
e 2 22
e 2 23
e 2 25
e 2 27
e 2 29
e 2 34
e 2 36
e 2 40
e 2 41
e 2 42
e 2 45
e 2 47
e 2 49
e 2 66
e 2 68
e 2 77
e 2 78
e 2 82
e 2 89
e 2 94
e 2 99
e 3 4
e 3 5
e 3 6
e 3 7
e 3 9
e 3 12
e 3 13
e 3 14
e 3 16
e 3 17
e 3 18
e 3 26
e 3 27
e 3 30
e 3 33
e 3 34
e 3 39
e 3 41
e 3 46
e 3 50
e 3 57
e 3 59
e 3 63
e 3 68
e 3 75
e 3 77
e 3 79
e 3 95
e 4 5
e 4 6
e 4 8
e 4 9
e 4 10
e 4 11
e 4 12
e 4 14
e 4 15
e 4 20
e 4 23
e 4 25
e 4 28
e 4 30
e 4 36
e 4 43
e 4 45
e 4 49
e 4 52
e 4 56
e 4 59
e 4 70
e 4 76
e 4 77
e 4 90
e 5 6
e 5 7
e 5 8
e 5 9
e 5 10
e 5 12
e 5 18
e 5 22
e 5 24
e 5 27
e 5 30
e 5 36
e 5 37
e 5 40
e 5 43
e 5 48
e 5 50
e 5 58
e 5 65
e 5 67
e 5 70
e 5 72
e 5 78
e 5 89
e 6 8
e 6 10
e 6 12
e 6 14
e 6 15
e 6 19
e 6 23
e 6 27
e 6 35
e 6 36
e 6 43
e 6 44
e 6 50
e 6 54
e 6 57
e 6 63
e 6 65
e 6 75
e 6 77
e 6 80
e 6 87
e 6 91
e 7 10
e 7 12
e 7 13
e 7 14
e 7 24
e 7 26
e 7 28
e 7 29
e 7 31
e 7 41
e 7 43
e 7 45
e 7 47
e 7 49
e 7 57
e 7 61
e 7 62
e 7 72
e 7 80
e 7 90
e 7 93
e 7 94
e 8 10
e 8 11
e 8 21
e 8 22
e 8 23
e 8 38
e 8 39
e 8 55
e 8 69
e 8 73
e 8 76
e 8 78
e 8 80
e 8 83
e 8 85
e 8 86
e 8 95
e 8 98
e 8 99
e 9 16
e 9 24
e 9 25
e 9 31
e 9 40
e 9 44
e 9 45
e 9 47
e 9 54
e 9 56
e 9 57
e 9 59
e 9 68
e 9 70
e 9 89
e 9 99
e 10 13
e 10 15
e 10 17
e 10 18
e 10 19
e 10 20
e 10 25
e 10 26
e 10 34
e 10 52
e 10 67
e 10 69
e 10 72
e 11 19
e 11 22
e 11 32
e 11 35
e 11 37
e 11 40
e 11 46
e 11 48
e 11 54
e 11 70
e 11 80
e 11 84
e 11 88
e 11 89
e 12 21
e 12 24
e 12 28
e 12 40
e 12 46
e 12 52
e 12 53
e 12 76
e 12 90
e 12 94
e 12 97
e 13 15
e 13 21
e 13 27
e 13 30
e 13 32
e 13 38
e 13 39
e 13 42
e 13 48
e 13 55
e 13 64
e 13 73
e 13 79
e 14 19
e 14 21
e 14 23
e 14 33
e 14 41
e 14 46
e 14 63
e 14 66
e 14 69
e 14 85
e 15 16
e 15 17
e 15 36
e 15 44
e 15 60
e 15 65
e 15 66
e 15 79
e 15 81
e 15 83
e 15 86
e 16 18
e 16 20
e 16 21
e 16 29
e 16 33
e 16 46
e 16 76
e 16 81
e 16 83
e 16 92
e 16 97
e 17 19
e 17 23
e 17 25
e 17 33
e 17 49
e 17 50
e 17 54
e 17 60
e 17 78
e 17 99
e 18 44
e 18 47
e 18 59
e 18 64
e 18 79
e 18 81
e 18 84
e 18 89
e 18 92
e 19 26
e 19 28
e 19 35
e 19 67
e 19 96
e 19 99
e 20 21
e 20 29
e 20 49
e 20 56
e 20 60
e 20 80
e 20 86
e 20 88
e 20 93
e 21 34
e 21 44
e 21 61
e 21 82
e 21 98
e 22 31
e 22 37
e 22 48
e 22 54
e 22 70
e 22 95
e 22 100
e 23 31
e 23 58
e 23 68
e 23 81
e 23 96
e 24 35
e 24 37
e 24 48
e 24 81
e 24 92
e 24 96
e 24 97
e 25 55
e 25 57
e 25 83
e 25 86
e 25 87
e 25 91
e 26 37
e 26 51
e 26 58
e 26 73
e 26 84
e 26 85
e 26 98
e 27 35
e 27 38
e 27 55
e 27 60
e 28 41
e 28 72
e 28 76
e 28 79
e 28 98
e 29 30
e 29 32
e 29 48
e 29 53
e 29 65
e 29 73
e 30 42
e 30 58
e 30 62
e 30 75
e 30 82
e 31 46
e 31 53
e 31 62
e 31 64
e 31 66
e 31 84
e 32 36
e 32 61
e 32 67
e 32 69
e 32 71
e 32 87
e 33 53
e 33 63
e 33 74
e 33 86
e 33 94
e 33 98
e 34 39
e 34 71
e 34 75
e 34 82
e 35 37
e 35 85
e 36 55
e 36 63
e 37 42
e 37 88
e 38 45
e 38 47
e 38 56
e 38 64
e 39 47
e 39 52
e 39 62
e 39 91
e 40 51
e 40 71
e 40 75
e 41 43
e 41 61
e 41 67
e 42 57
e 42 62
e 42 97
e 42 100
e 43 74
e 43 88
e 43 90
e 44 50
e 44 92
e 45 51
e 46 65
e 47 52
e 48 71
e 49 53
e 49 83
e 50 74
e 50 91
e 51 56
e 51 58
e 51 60
e 51 61
e 52 85
e 52 93
e 53 74
e 53 90
e 54 82
e 55 59
e 59 88
e 60 93
e 61 63
e 62 68
e 64 96
e 65 66
e 66 87
e 67 72
e 68 93
e 69 100
e 70 87
e 71 100
e 72 73
e 73 92
e 74 91
e 75 95
e 76 97
n 5 6
n 14 4
n 21 4
n 26 6
n 27 6
n 29 7
n 31 2
n 35 6
n 36 6
n 37 6
n 43 6
n 44 4
n 45 8
n 47 10
n 49 2
n 52 10
n 54 6
n 55 6
n 56 1
n 57 8
n 58 6
n 59 6
n 60 6
n 61 4
n 64 2
n 67 6
n 68 5
n 69 4
n 70 6
n 71 4
n 72 6
n 75 1
n 76 2
n 77 10
n 78 6
n 79 7
n 80 9
n 81 9
n 83 2
n 86 3
n 87 6
n 88 6
n 89 6
n 90 6
n 91 8
n 92 4
n 95 1
n 97 2
n 99 8
n 100 4
